p cnf 84 266
a 32 27 0
e 1 2 3 4 5 6 7 8 9 10 11 12 13 14 15 16 17 18 19 20 21 22 23 24 25 26 28 29 30 31 33 34 35 36 37 38 39 40 41 42 43 44 45 46 47 48 49 50 51 52 53 54 55 56 57 58 59 60 61 62 63 64 65 66 67 68 69 70 71 72 73 74 75 76 77 78 79 80 81 82 83 84 0
-2 -3 0
2 -3 0
-5 -4 0
-5 -2 0
4 2 5 0
7 5 0
7 6 0
-5 -6 -7 0
8 -3 0
8 7 0
3 -7 -8 0
9 1 0
9 -8 0
-1 8 -9 0
-10 9 0
-10 6 0
-9 -6 10 0
11 -6 0
11 5 0
6 -5 -11 0
-11 -1 -12 0
11 1 -12 0
-11 1 12 0
11 -1 12 0
14 13 0
14 -4 0
-13 4 -14 0
-15 -14 0
-15 -5 0
14 5 15 0
-16 -12 0
-16 -15 0
12 15 16 0
6 5 -17 0
-6 -5 -17 0
6 -5 17 0
-6 5 17 0
18 -13 0
18 -17 0
13 17 -18 0
19 -16 0
19 18 0
16 -18 -19 0
20 -10 0
20 19 0
10 -19 -20 0
-22 -7 0
-22 -21 0
7 21 22 0
-11 -22 -23 0
11 22 -23 0
-11 22 23 0
11 -22 23 0
-24 -17 0
-24 -12 0
17 12 24 0
25 2 0
25 -13 0
-2 13 -25 0
26 -11 0
26 25 0
11 -25 -26 0
-27 26 0
-27 -7 0
-26 7 27 0
-28 24 0
-28 -27 0
-24 27 28 0
-14 -7 -29 0
14 7 -29 0
-14 7 29 0
14 -7 29 0
30 4 0
30 29 0
-4 -29 -30 0
-2 30 -31 0
2 -30 -31 0
-2 -30 31 0
2 30 31 0
32 -28 0
32 -31 0
28 31 -32 0
33 -23 0
33 -32 0
23 32 -33 0
35 -34 0
35 7 0
34 -7 -35 0
-36 -34 0
-36 -35 0
34 35 36 0
-38 37 0
-38 8 0
-37 -8 38 0
-39 -38 0
-39 -5 0
38 5 39 0
40 37 0
40 29 0
-37 -29 -40 0
-41 40 0
-41 26 0
-40 -26 41 0
42 -39 0
42 41 0
39 -41 -42 0
-43 7 0
-43 -1 0
-7 1 43 0
4 -3 -44 0
-4 3 -44 0
4 3 44 0
-4 -3 44 0
2 13 -45 0
-2 -13 -45 0
2 -13 45 0
-2 13 45 0
46 -11 0
46 4 0
11 -4 -46 0
47 29 0
47 46 0
-29 -46 -47 0
-48 -45 0
-48 -47 0
45 47 48 0
-49 -44 0
-49 48 0
44 -48 49 0
-43 49 -50 0
43 -49 -50 0
-43 -49 50 0
43 49 50 0
51 -42 0
51 -50 0
42 50 -51 0
36 51 -52 0
-36 -51 -52 0
36 -51 52 0
-36 51 52 0
53 33 0
53 52 0
-33 -52 -53 0
20 53 -54 0
-20 -53 -54 0
20 -53 54 0
-20 53 54 0
-56 1 0
-56 6 0
-1 -6 56 0
-55 56 -57 0
55 -56 -57 0
-55 -56 57 0
55 56 57 0
58 54 0
58 57 0
-54 -57 -58 0
5 -22 -59 0
-5 22 -59 0
5 22 59 0
-5 -22 59 0
59 48 -60 0
-59 -48 -60 0
59 -48 60 0
-59 48 60 0
58 60 -61 0
-58 -60 -61 0
58 -60 61 0
-58 60 61 0
62 -27 0
62 26 0
27 -26 -62 0
63 -43 0
63 17 0
43 -17 -63 0
-64 -30 0
-64 63 0
30 -63 64 0
-65 -15 0
-65 -64 0
15 64 65 0
-67 35 0
-67 -66 0
-35 66 67 0
-68 -65 0
-68 -67 0
65 67 68 0
-69 -62 0
-69 68 0
62 -68 69 0
38 43 -70 0
-38 -43 -70 0
38 -43 70 0
-38 43 70 0
71 -7 0
71 -21 0
7 21 -71 0
72 -71 0
72 2 0
71 -2 -72 0
30 21 -73 0
-30 -21 -73 0
30 -21 73 0
-30 21 73 0
-72 73 -74 0
72 -73 -74 0
-72 -73 74 0
72 73 74 0
-66 45 -75 0
66 -45 -75 0
-66 -45 75 0
66 45 75 0
75 11 -76 0
-75 -11 -76 0
75 -11 76 0
-75 11 76 0
77 74 0
77 -76 0
-74 76 -77 0
-78 70 0
-78 -77 0
-70 77 78 0
-79 -24 0
-79 22 0
24 -22 79 0
-80 -78 0
-80 -79 0
78 79 80 0
81 -69 0
81 -80 0
69 80 -81 0
-82 71 0
-82 -66 0
-71 66 82 0
81 -82 -83 0
-81 82 -83 0
81 82 83 0
-81 -82 83 0
-84 61 0
-84 83 0
-61 -83 84 0
-83 -27 -8 15 -75 17 0
-15 40 -41 -9 0
-18 82 71 -46 83 0
-73 25 3 10 53 0
-83 82 -1 66 81 77 0
-66 -67 -63 0
28 -69 -17 25 -72 -26 -83 0
-51 -38 29 60 -17 -18 0
64 -10 66 6 17 65 -3 -9 0
-49 -22 53 -9 0
-79 34 -73 0
-22 -45 -64 72 61 0
55 2 22 -43 75 7 0
20 -11 73 -35 15 -2 0
-38 -55 83 -14 0
-53 -84 -61 66 11 12 0
37 -71 -52 0
11 -69 54 -67 50 -43 -38 44 0
-2 70 27 71 77 8 -38 -45 0
25 -19 61 -8 66 26 13 0
-61 42 -20 73 0
18 7 1 72 81 0
-1 14 -26 -72 -49 0
8 58 67 55 0
84 0
